\ Model Linear_Programming_Example
\ LP format - for model browsing. Use MPS format to capture full model detail.
Minimize
  xy + yz + zx
Subject To
 R0: xy + zx >= 1
 R1: xy + yz >= 1
 R2: yz + zx >= 1
Bounds
End
